graphs/DSJC125.5.col
p edge 125 3891
e 1 2
e 1 3
e 1 4
e 1 5
e 1 6
e 1 10
e 1 11
e 1 12
e 1 13
e 1 15
e 1 16
e 1 17
e 1 18
e 1 21
e 1 22
e 1 25
e 1 26
e 1 27
e 1 28
e 1 29
e 1 30
e 1 32
e 1 33
e 1 36
e 1 37
e 1 38
e 1 40
e 1 45
e 1 46
e 1 47
e 1 49
e 1 54
e 1 56
e 1 57
e 1 58
e 1 59
e 1 60
e 1 61
e 1 62
e 1 67
e 1 69
e 1 71
e 1 80
e 1 81
e 1 82
e 1 83
e 1 84
e 1 91
e 1 92
e 1 93
e 1 94
e 1 95
e 1 96
e 1 97
e 1 98
e 1 99
e 1 100
e 1 101
e 1 103
e 1 104
e 1 105
e 1 106
e 1 107
e 1 108
e 1 114
e 1 116
e 1 117
e 1 120
e 1 121
e 1 122
e 1 123
e 1 124
e 2 4
e 2 5
e 2 6
e 2 7
e 2 10
e 2 11
e 2 13
e 2 14
e 2 15
e 2 18
e 2 21
e 2 23
e 2 26
e 2 27
e 2 28
e 2 30
e 2 31
e 2 32
e 2 33
e 2 34
e 2 35
e 2 37
e 2 39
e 2 40
e 2 42
e 2 44
e 2 46
e 2 49
e 2 50
e 2 54
e 2 55
e 2 56
e 2 57
e 2 58
e 2 59
e 2 60
e 2 61
e 2 62
e 2 64
e 2 66
e 2 67
e 2 68
e 2 70
e 2 72
e 2 73
e 2 74
e 2 75
e 2 76
e 2 78
e 2 79
e 2 82
e 2 89
e 2 91
e 2 94
e 2 98
e 2 100
e 2 102
e 2 104
e 2 105
e 2 111
e 2 113
e 2 114
e 2 115
e 2 116
e 2 118
e 2 123
e 2 124
e 3 4
e 3 5
e 3 6
e 3 7
e 3 8
e 3 10
e 3 13
e 3 14
e 3 17
e 3 18
e 3 24
e 3 25
e 3 28
e 3 30
e 3 32
e 3 33
e 3 34
e 3 36
e 3 37
e 3 40
e 3 41
e 3 42
e 3 43
e 3 44
e 3 45
e 3 49
e 3 50
e 3 54
e 3 57
e 3 59
e 3 60
e 3 61
e 3 64
e 3 65
e 3 66
e 3 69
e 3 71
e 3 74
e 3 78
e 3 79
e 3 80
e 3 81
e 3 82
e 3 83
e 3 84
e 3 85
e 3 87
e 3 89
e 3 91
e 3 94
e 3 97
e 3 101
e 3 105
e 3 106
e 3 107
e 3 108
e 3 110
e 3 111
e 3 112
e 3 113
e 3 114
e 3 118
e 3 119
e 3 120
e 3 121
e 3 122
e 3 124
e 4 6
e 4 10
e 4 12
e 4 14
e 4 16
e 4 17
e 4 18
e 4 21
e 4 23
e 4 24
e 4 25
e 4 27
e 4 29
e 4 30
e 4 32
e 4 34
e 4 35
e 4 39
e 4 40
e 4 41
e 4 43
e 4 45
e 4 46
e 4 47
e 4 51
e 4 52
e 4 55
e 4 56
e 4 58
e 4 60
e 4 61
e 4 63
e 4 66
e 4 67
e 4 68
e 4 71
e 4 73
e 4 76
e 4 77
e 4 79
e 4 81
e 4 85
e 4 87
e 4 90
e 4 92
e 4 93
e 4 94
e 4 96
e 4 101
e 4 103
e 4 104
e 4 105
e 4 112
e 4 113
e 4 114
e 4 115
e 4 116
e 4 117
e 4 118
e 4 121
e 4 124
e 4 125
e 5 8
e 5 9
e 5 11
e 5 12
e 5 13
e 5 15
e 5 16
e 5 17
e 5 20
e 5 24
e 5 30
e 5 31
e 5 35
e 5 41
e 5 44
e 5 47
e 5 48
e 5 51
e 5 54
e 5 55
e 5 59
e 5 61
e 5 62
e 5 65
e 5 66
e 5 67
e 5 71
e 5 76
e 5 77
e 5 78
e 5 79
e 5 84
e 5 86
e 5 87
e 5 88
e 5 91
e 5 92
e 5 93
e 5 96
e 5 98
e 5 100
e 5 101
e 5 102
e 5 103
e 5 104
e 5 106
e 5 107
e 5 109
e 5 111
e 5 112
e 5 120
e 5 125
e 6 7
e 6 10
e 6 11
e 6 17
e 6 18
e 6 19
e 6 21
e 6 23
e 6 26
e 6 28
e 6 29
e 6 34
e 6 36
e 6 37
e 6 38
e 6 42
e 6 44
e 6 46
e 6 47
e 6 48
e 6 49
e 6 51
e 6 52
e 6 53
e 6 54
e 6 55
e 6 56
e 6 58
e 6 59
e 6 60
e 6 61
e 6 65
e 6 66
e 6 67
e 6 72
e 6 75
e 6 80
e 6 81
e 6 82
e 6 84
e 6 85
e 6 89
e 6 90
e 6 91
e 6 92
e 6 95
e 6 96
e 6 98
e 6 99
e 6 100
e 6 101
e 6 103
e 6 106
e 6 110
e 6 111
e 6 112
e 6 114
e 6 116
e 6 119
e 6 120
e 6 121
e 6 123
e 6 125
e 7 10
e 7 12
e 7 14
e 7 18
e 7 19
e 7 20
e 7 21
e 7 24
e 7 25
e 7 26
e 7 31
e 7 32
e 7 35
e 7 36
e 7 37
e 7 38
e 7 39
e 7 40
e 7 43
e 7 44
e 7 45
e 7 46
e 7 47
e 7 50
e 7 51
e 7 52
e 7 57
e 7 58
e 7 59
e 7 61
e 7 63
e 7 65
e 7 67
e 7 68
e 7 72
e 7 78
e 7 79
e 7 81
e 7 82
e 7 83
e 7 86
e 7 87
e 7 92
e 7 93
e 7 94
e 7 95
e 7 96
e 7 99
e 7 100
e 7 106
e 7 110
e 7 111
e 7 113
e 7 115
e 7 118
e 7 120
e 7 121
e 7 122
e 8 10
e 8 11
e 8 12
e 8 13
e 8 14
e 8 15
e 8 16
e 8 17
e 8 18
e 8 21
e 8 24
e 8 26
e 8 29
e 8 33
e 8 35
e 8 36
e 8 38
e 8 43
e 8 45
e 8 48
e 8 50
e 8 54
e 8 56
e 8 58
e 8 59
e 8 61
e 8 64
e 8 69
e 8 72
e 8 73
e 8 74
e 8 75
e 8 76
e 8 77
e 8 78
e 8 80
e 8 82
e 8 83
e 8 84
e 8 85
e 8 86
e 8 90
e 8 95
e 8 96
e 8 99
e 8 100
e 8 101
e 8 104
e 8 105
e 8 107
e 8 109
e 8 114
e 8 116
e 8 117
e 8 118
e 8 122
e 8 125
e 9 11
e 9 12
e 9 13
e 9 16
e 9 17
e 9 21
e 9 22
e 9 23
e 9 24
e 9 25
e 9 27
e 9 32
e 9 34
e 9 35
e 9 37
e 9 38
e 9 40
e 9 46
e 9 47
e 9 49
e 9 50
e 9 51
e 9 52
e 9 54
e 9 55
e 9 56
e 9 57
e 9 59
e 9 64
e 9 65
e 9 66
e 9 67
e 9 69
e 9 71
e 9 72
e 9 73
e 9 74
e 9 75
e 9 77
e 9 78
e 9 81
e 9 82
e 9 83
e 9 84
e 9 85
e 9 86
e 9 87
e 9 88
e 9 90
e 9 96
e 9 100
e 9 106
e 9 107
e 9 108
e 9 111
e 9 117
e 9 118
e 9 119
e 9 122
e 9 123
e 10 14
e 10 15
e 10 16
e 10 17
e 10 19
e 10 21
e 10 25
e 10 26
e 10 27
e 10 28
e 10 29
e 10 30
e 10 31
e 10 33
e 10 36
e 10 37
e 10 38
e 10 40
e 10 41
e 10 44
e 10 45
e 10 48
e 10 50
e 10 58
e 10 60
e 10 64
e 10 66
e 10 67
e 10 68
e 10 71
e 10 72
e 10 74
e 10 79
e 10 81
e 10 84
e 10 85
e 10 87
e 10 88
e 10 89
e 10 91
e 10 92
e 10 94
e 10 95
e 10 96
e 10 97
e 10 101
e 10 102
e 10 103
e 10 105
e 10 108
e 10 109
e 10 110
e 10 116
e 10 117
e 10 118
e 10 119
e 10 120
e 10 121
e 10 123
e 10 125
e 11 12
e 11 13
e 11 20
e 11 22
e 11 23
e 11 25
e 11 28
e 11 30
e 11 31
e 11 32
e 11 34
e 11 37
e 11 40
e 11 41
e 11 43
e 11 45
e 11 46
e 11 48
e 11 49
e 11 52
e 11 54
e 11 55
e 11 57
e 11 58
e 11 59
e 11 61
e 11 62
e 11 67
e 11 68
e 11 71
e 11 73
e 11 75
e 11 79
e 11 82
e 11 83
e 11 85
e 11 86
e 11 87
e 11 88
e 11 89
e 11 90
e 11 91
e 11 93
e 11 99
e 11 102
e 11 103
e 11 104
e 11 105
e 11 108
e 11 112
e 11 113
e 11 114
e 11 119
e 11 122
e 11 123
e 12 13
e 12 15
e 12 17
e 12 18
e 12 20
e 12 21
e 12 24
e 12 26
e 12 30
e 12 32
e 12 33
e 12 34
e 12 36
e 12 39
e 12 41
e 12 43
e 12 45
e 12 46
e 12 48
e 12 50
e 12 51
e 12 53
e 12 54
e 12 57
e 12 59
e 12 62
e 12 63
e 12 64
e 12 65
e 12 72
e 12 74
e 12 75
e 12 76
e 12 77
e 12 79
e 12 81
e 12 85
e 12 87
e 12 89
e 12 90
e 12 92
e 12 97
e 12 98
e 12 103
e 12 104
e 12 105
e 12 108
e 12 109
e 12 112
e 12 113
e 12 116
e 12 119
e 12 121
e 12 122
e 12 123
e 12 125
e 13 15
e 13 16
e 13 17
e 13 18
e 13 20
e 13 21
e 13 22
e 13 24
e 13 25
e 13 29
e 13 33
e 13 35
e 13 36
e 13 39
e 13 41
e 13 43
e 13 47
e 13 48
e 13 50
e 13 54
e 13 59
e 13 60
e 13 63
e 13 64
e 13 65
e 13 69
e 13 70
e 13 74
e 13 75
e 13 76
e 13 78
e 13 81
e 13 83
e 13 84
e 13 85
e 13 87
e 13 88
e 13 89
e 13 93
e 13 94
e 13 98
e 13 99
e 13 100
e 13 102
e 13 103
e 13 107
e 13 108
e 13 110
e 13 112
e 13 113
e 13 115
e 13 116
e 13 117
e 13 120
e 13 121
e 13 123
e 14 20
e 14 24
e 14 29
e 14 31
e 14 35
e 14 37
e 14 38
e 14 39
e 14 40
e 14 42
e 14 43
e 14 44
e 14 46
e 14 47
e 14 48
e 14 50
e 14 51
e 14 55
e 14 57
e 14 61
e 14 64
e 14 65
e 14 66
e 14 67
e 14 70
e 14 71
e 14 72
e 14 74
e 14 75
e 14 77
e 14 78
e 14 79
e 14 84
e 14 89
e 14 90
e 14 91
e 14 93
e 14 94
e 14 95
e 14 97
e 14 98
e 14 100
e 14 104
e 14 105
e 14 109
e 14 112
e 14 114
e 14 118
e 14 119
e 14 120
e 14 121
e 14 123
e 14 124
e 14 125
e 15 17
e 15 18
e 15 19
e 15 21
e 15 22
e 15 26
e 15 29
e 15 30
e 15 31
e 15 33
e 15 36
e 15 37
e 15 41
e 15 43
e 15 47
e 15 51
e 15 52
e 15 54
e 15 55
e 15 57
e 15 59
e 15 63
e 15 65
e 15 66
e 15 67
e 15 70
e 15 74
e 15 75
e 15 77
e 15 78
e 15 81
e 15 82
e 15 83
e 15 86
e 15 89
e 15 92
e 15 93
e 15 94
e 15 98
e 15 100
e 15 103
e 15 104
e 15 105
e 15 106
e 15 109
e 15 110
e 15 114
e 15 115
e 15 117
e 15 120
e 15 122
e 15 124
e 15 125
e 16 17
e 16 19
e 16 21
e 16 22
e 16 23
e 16 24
e 16 25
e 16 26
e 16 27
e 16 29
e 16 30
e 16 31
e 16 33
e 16 34
e 16 36
e 16 37
e 16 38
e 16 39
e 16 42
e 16 45
e 16 48
e 16 51
e 16 53
e 16 54
e 16 55
e 16 57
e 16 58
e 16 59
e 16 60
e 16 65
e 16 69
e 16 73
e 16 76
e 16 80
e 16 81
e 16 83
e 16 84
e 16 85
e 16 86
e 16 87
e 16 89
e 16 91
e 16 96
e 16 99
e 16 100
e 16 101
e 16 102
e 16 105
e 16 112
e 16 115
e 16 118
e 16 119
e 16 120
e 16 122
e 16 123
e 17 20
e 17 22
e 17 23
e 17 25
e 17 26
e 17 27
e 17 29
e 17 30
e 17 32
e 17 34
e 17 35
e 17 36
e 17 39
e 17 43
e 17 47
e 17 50
e 17 56
e 17 57
e 17 58
e 17 61
e 17 62
e 17 64
e 17 65
e 17 67
e 17 68
e 17 69
e 17 73
e 17 74
e 17 75
e 17 76
e 17 77
e 17 78
e 17 79
e 17 82
e 17 84
e 17 85
e 17 90
e 17 91
e 17 93
e 17 97
e 17 98
e 17 100
e 17 102
e 17 103
e 17 104
e 17 105
e 17 106
e 17 108
e 17 109
e 17 110
e 17 111
e 17 112
e 17 114
e 17 115
e 17 116
e 17 117
e 17 118
e 17 120
e 17 124
e 18 19
e 18 20
e 18 21
e 18 22
e 18 23
e 18 25
e 18 26
e 18 27
e 18 28
e 18 30
e 18 31
e 18 32
e 18 35
e 18 36
e 18 39
e 18 43
e 18 45
e 18 46
e 18 48
e 18 50
e 18 51
e 18 54
e 18 55
e 18 57
e 18 59
e 18 60
e 18 62
e 18 64
e 18 67
e 18 72
e 18 73
e 18 74
e 18 76
e 18 77
e 18 79
e 18 81
e 18 84
e 18 85
e 18 86
e 18 87
e 18 88
e 18 89
e 18 91
e 18 92
e 18 93
e 18 94
e 18 97
e 18 99
e 18 100
e 18 101
e 18 103
e 18 104
e 18 105
e 18 106
e 18 107
e 18 112
e 18 114
e 18 116
e 18 117
e 18 119
e 18 120
e 18 121
e 18 125
e 19 20
e 19 22
e 19 23
e 19 24
e 19 26
e 19 27
e 19 31
e 19 33
e 19 34
e 19 35
e 19 37
e 19 38
e 19 39
e 19 40
e 19 41
e 19 45
e 19 49
e 19 52
e 19 53
e 19 56
e 19 59
e 19 60
e 19 61
e 19 64
e 19 65
e 19 66
e 19 69
e 19 72
e 19 73
e 19 74
e 19 79
e 19 80
e 19 81
e 19 82
e 19 83
e 19 84
e 19 87
e 19 88
e 19 90
e 19 92
e 19 93
e 19 97
e 19 98
e 19 100
e 19 101
e 19 102
e 19 103
e 19 104
e 19 107
e 19 108
e 19 112
e 19 115
e 19 116
e 19 117
e 19 119
e 19 120
e 19 121
e 19 124
e 19 125
e 20 23
e 20 24
e 20 25
e 20 26
e 20 27
e 20 30
e 20 31
e 20 34
e 20 41
e 20 42
e 20 43
e 20 44
e 20 45
e 20 47
e 20 50
e 20 51
e 20 52
e 20 56
e 20 60
e 20 62
e 20 66
e 20 67
e 20 68
e 20 69
e 20 70
e 20 75
e 20 76
e 20 79
e 20 82
e 20 83
e 20 84
e 20 87
e 20 90
e 20 92
e 20 95
e 20 100
e 20 101
e 20 102
e 20 108
e 20 110
e 20 114
e 20 115
e 20 116
e 20 117
e 20 118
e 20 120
e 20 121
e 20 124
e 20 125
e 21 22
e 21 24
e 21 26
e 21 27
e 21 29
e 21 31
e 21 33
e 21 37
e 21 38
e 21 40
e 21 41
e 21 44
e 21 45
e 21 46
e 21 47
e 21 48
e 21 51
e 21 52
e 21 53
e 21 54
e 21 55
e 21 58
e 21 60
e 21 61
e 21 62
e 21 63
e 21 64
e 21 65
e 21 66
e 21 71
e 21 74
e 21 75
e 21 78
e 21 79
e 21 81
e 21 83
e 21 85
e 21 87
e 21 88
e 21 91
e 21 93
e 21 98
e 21 100
e 21 104
e 21 110
e 21 113
e 21 114
e 21 116
e 21 118
e 21 120
e 21 122
e 21 123
e 22 23
e 22 24
e 22 25
e 22 28
e 22 29
e 22 33
e 22 34
e 22 36
e 22 37
e 22 38
e 22 41
e 22 45
e 22 47
e 22 49
e 22 50
e 22 55
e 22 56
e 22 57
e 22 58
e 22 60
e 22 61
e 22 62
e 22 63
e 22 64
e 22 65
e 22 69
e 22 73
e 22 74
e 22 76
e 22 79
e 22 85
e 22 87
e 22 90
e 22 91
e 22 95
e 22 96
e 22 97
e 22 98
e 22 99
e 22 100
e 22 102
e 22 103
e 22 104
e 22 105
e 22 108
e 22 110
e 22 111
e 22 115
e 22 116
e 22 120
e 23 24
e 23 25
e 23 26
e 23 27
e 23 28
e 23 29
e 23 30
e 23 31
e 23 35
e 23 38
e 23 43
e 23 44
e 23 45
e 23 46
e 23 47
e 23 49
e 23 51
e 23 54
e 23 55
e 23 56
e 23 58
e 23 59
e 23 61
e 23 65
e 23 66
e 23 67
e 23 68
e 23 70
e 23 71
e 23 72
e 23 73
e 23 76
e 23 78
e 23 80
e 23 82
e 23 87
e 23 88
e 23 94
e 23 96
e 23 97
e 23 98
e 23 99
e 23 103
e 23 105
e 23 106
e 23 107
e 23 110
e 23 111
e 23 113
e 23 115
e 23 116
e 23 119
e 23 122
e 23 123
e 23 125
e 24 25
e 24 26
e 24 28
e 24 29
e 24 33
e 24 34
e 24 35
e 24 38
e 24 41
e 24 42
e 24 43
e 24 44
e 24 45
e 24 47
e 24 48
e 24 49
e 24 50
e 24 51
e 24 54
e 24 55
e 24 56
e 24 58
e 24 62
e 24 63
e 24 66
e 24 67
e 24 68
e 24 69
e 24 70
e 24 72
e 24 74
e 24 76
e 24 78
e 24 79
e 24 80
e 24 82
e 24 87
e 24 88
e 24 91
e 24 93
e 24 95
e 24 96
e 24 98
e 24 99
e 24 100
e 24 101
e 24 102
e 24 104
e 24 105
e 24 106
e 24 109
e 24 110
e 24 111
e 24 113
e 24 114
e 24 116
e 24 118
e 24 119
e 24 123
e 24 125
e 25 26
e 25 27
e 25 29
e 25 30
e 25 31
e 25 32
e 25 34
e 25 35
e 25 37
e 25 39
e 25 40
e 25 42
e 25 43
e 25 44
e 25 46
e 25 48
e 25 49
e 25 52
e 25 53
e 25 55
e 25 60
e 25 61
e 25 64
e 25 65
e 25 67
e 25 73
e 25 79
e 25 81
e 25 84
e 25 85
e 25 86
e 25 89
e 25 93
e 25 95
e 25 99
e 25 103
e 25 104
e 25 105
e 25 106
e 25 108
e 25 110
e 25 118
e 25 119
e 25 121
e 25 124
e 25 125
e 26 28
e 26 30
e 26 33
e 26 34
e 26 36
e 26 38
e 26 40
e 26 41
e 26 42
e 26 43
e 26 44
e 26 45
e 26 46
e 26 47
e 26 48
e 26 50
e 26 52
e 26 53
e 26 54
e 26 55
e 26 57
e 26 58
e 26 59
e 26 60
e 26 61
e 26 62
e 26 63
e 26 64
e 26 66
e 26 68
e 26 69
e 26 70
e 26 76
e 26 78
e 26 83
e 26 85
e 26 86
e 26 87
e 26 88
e 26 90
e 26 94
e 26 95
e 26 97
e 26 99
e 26 100
e 26 101
e 26 103
e 26 105
e 26 108
e 26 109
e 26 113
e 26 114
e 26 119
e 26 121
e 26 122
e 26 123
e 26 125
e 27 29
e 27 30
e 27 33
e 27 35
e 27 39
e 27 40
e 27 45
e 27 47
e 27 51
e 27 52
e 27 54
e 27 59
e 27 63
e 27 66
e 27 69
e 27 71
e 27 72
e 27 73
e 27 75
e 27 76
e 27 78
e 27 79
e 27 80
e 27 83
e 27 84
e 27 87
e 27 89
e 27 92
e 27 95
e 27 96
e 27 98
e 27 99
e 27 103
e 27 104
e 27 107
e 27 109
e 27 113
e 27 114
e 27 115
e 27 116
e 27 118
e 27 121
e 27 122
e 28 29
e 28 30
e 28 32
e 28 33
e 28 34
e 28 36
e 28 38
e 28 39
e 28 42
e 28 44
e 28 45
e 28 47
e 28 50
e 28 52
e 28 54
e 28 55
e 28 56
e 28 57
e 28 58
e 28 59
e 28 65
e 28 66
e 28 67
e 28 69
e 28 70
e 28 71
e 28 72
e 28 74
e 28 75
e 28 79
e 28 81
e 28 83
e 28 86
e 28 87
e 28 88
e 28 89
e 28 90
e 28 92
e 28 94
e 28 95
e 28 97
e 28 98
e 28 101
e 28 102
e 28 104
e 28 105
e 28 106
e 28 112
e 28 114
e 28 115
e 28 117
e 28 118
e 28 119
e 28 120
e 28 121
e 28 123
e 28 125
e 29 31
e 29 32
e 29 33
e 29 38
e 29 40
e 29 44
e 29 46
e 29 47
e 29 52
e 29 55
e 29 57
e 29 58
e 29 59
e 29 60
e 29 62
e 29 63
e 29 66
e 29 69
e 29 70
e 29 74
e 29 76
e 29 78
e 29 79
e 29 84
e 29 88
e 29 91
e 29 92
e 29 93
e 29 94
e 29 95
e 29 96
e 29 99
e 29 101
e 29 114
e 29 115
e 29 116
e 29 118
e 29 119
e 29 122
e 29 124
e 30 35
e 30 36
e 30 37
e 30 38
e 30 41
e 30 45
e 30 46
e 30 49
e 30 52
e 30 53
e 30 58
e 30 62
e 30 63
e 30 65
e 30 68
e 30 70
e 30 71
e 30 73
e 30 74
e 30 75
e 30 76
e 30 77
e 30 79
e 30 85
e 30 87
e 30 88
e 30 93
e 30 95
e 30 96
e 30 97
e 30 98
e 30 99
e 30 102
e 30 104
e 30 105
e 30 107
e 30 108
e 30 109
e 30 110
e 30 111
e 30 112
e 30 113
e 30 114
e 30 117
e 30 118
e 30 124
e 31 36
e 31 37
e 31 38
e 31 41
e 31 43
e 31 45
e 31 46
e 31 48
e 31 50
e 31 54
e 31 58
e 31 59
e 31 61
e 31 62
e 31 63
e 31 64
e 31 65
e 31 66
e 31 68
e 31 70
e 31 73
e 31 74
e 31 77
e 31 79
e 31 81
e 31 83
e 31 84
e 31 86
e 31 87
e 31 88
e 31 94
e 31 98
e 31 100
e 31 101
e 31 102
e 31 104
e 31 106
e 31 112
e 31 113
e 31 115
e 31 120
e 31 121
e 32 33
e 32 35
e 32 36
e 32 37
e 32 38
e 32 43
e 32 47
e 32 48
e 32 52
e 32 53
e 32 55
e 32 59
e 32 62
e 32 63
e 32 64
e 32 66
e 32 67
e 32 68
e 32 71
e 32 72
e 32 75
e 32 78
e 32 83
e 32 84
e 32 93
e 32 94
e 32 98
e 32 99
e 32 101
e 32 105
e 32 106
e 32 107
e 32 108
e 32 109
e 32 110
e 32 112
e 32 113
e 32 114
e 32 115
e 32 118
e 32 119
e 32 121
e 32 123
e 33 34
e 33 36
e 33 37
e 33 40
e 33 41
e 33 42
e 33 43
e 33 45
e 33 46
e 33 47
e 33 48
e 33 49
e 33 51
e 33 52
e 33 54
e 33 58
e 33 61
e 33 62
e 33 65
e 33 66
e 33 68
e 33 72
e 33 77
e 33 78
e 33 79
e 33 80
e 33 82
e 33 83
e 33 84
e 33 85
e 33 86
e 33 88
e 33 89
e 33 90
e 33 92
e 33 95
e 33 96
e 33 97
e 33 98
e 33 99
e 33 100
e 33 102
e 33 103
e 33 105
e 33 106
e 33 108
e 33 109
e 33 110
e 33 111
e 33 114
e 33 115
e 33 117
e 33 118
e 33 119
e 33 124
e 34 35
e 34 36
e 34 42
e 34 44
e 34 46
e 34 47
e 34 48
e 34 49
e 34 50
e 34 52
e 34 53
e 34 55
e 34 56
e 34 57
e 34 58
e 34 59
e 34 62
e 34 67
e 34 70
e 34 72
e 34 73
e 34 76
e 34 84
e 34 85
e 34 86
e 34 87
e 34 90
e 34 91
e 34 92
e 34 93
e 34 95
e 34 96
e 34 99
e 34 100
e 34 102
e 34 108
e 34 110
e 34 111
e 34 114
e 34 115
e 34 116
e 34 119
e 34 120
e 34 123
e 34 125
e 35 38
e 35 39
e 35 41
e 35 44
e 35 45
e 35 46
e 35 53
e 35 55
e 35 56
e 35 58
e 35 60
e 35 62
e 35 63
e 35 67
e 35 69
e 35 71
e 35 72
e 35 73
e 35 76
e 35 77
e 35 78
e 35 79
e 35 80
e 35 83
e 35 84
e 35 85
e 35 86
e 35 87
e 35 92
e 35 95
e 35 96
e 35 97
e 35 98
e 35 99
e 35 100
e 35 103
e 35 104
e 35 106
e 35 112
e 35 113
e 35 115
e 35 116
e 35 121
e 35 125
e 36 37
e 36 42
e 36 44
e 36 47
e 36 48
e 36 49
e 36 50
e 36 53
e 36 55
e 36 56
e 36 57
e 36 58
e 36 63
e 36 66
e 36 67
e 36 68
e 36 69
e 36 72
e 36 73
e 36 74
e 36 75
e 36 80
e 36 81
e 36 82
e 36 85
e 36 88
e 36 93
e 36 96
e 36 97
e 36 99
e 36 101
e 36 102
e 36 103
e 36 104
e 36 105
e 36 107
e 36 108
e 36 110
e 36 112
e 36 113
e 36 114
e 36 115
e 36 116
e 36 121
e 36 122
e 37 40
e 37 43
e 37 45
e 37 46
e 37 48
e 37 54
e 37 56
e 37 58
e 37 63
e 37 65
e 37 67
e 37 68
e 37 71
e 37 72
e 37 74
e 37 75
e 37 78
e 37 80
e 37 82
e 37 83
e 37 85
e 37 88
e 37 93
e 37 96
e 37 97
e 37 99
e 37 100
e 37 102
e 37 103
e 37 108
e 37 109
e 37 110
e 37 113
e 37 116
e 37 118
e 37 119
e 37 120
e 37 121
e 37 122
e 37 123
e 38 40
e 38 42
e 38 43
e 38 44
e 38 45
e 38 49
e 38 51
e 38 52
e 38 54
e 38 55
e 38 57
e 38 59
e 38 60
e 38 62
e 38 63
e 38 64
e 38 66
e 38 68
e 38 69
e 38 70
e 38 71
e 38 76
e 38 77
e 38 78
e 38 84
e 38 86
e 38 87
e 38 89
e 38 91
e 38 92
e 38 94
e 38 95
e 38 100
e 38 101
e 38 102
e 38 105
e 38 106
e 38 111
e 38 113
e 38 114
e 38 118
e 38 120
e 38 123
e 38 125
e 39 43
e 39 44
e 39 45
e 39 48
e 39 51
e 39 52
e 39 54
e 39 56
e 39 57
e 39 58
e 39 60
e 39 62
e 39 63
e 39 65
e 39 66
e 39 67
e 39 68
e 39 69
e 39 72
e 39 73
e 39 75
e 39 77
e 39 78
e 39 86
e 39 89
e 39 98
e 39 99
e 39 100
e 39 101
e 39 103
e 39 104
e 39 106
e 39 110
e 39 111
e 39 113
e 39 114
e 39 117
e 39 119
e 39 120
e 39 124
e 40 41
e 40 42
e 40 44
e 40 45
e 40 48
e 40 49
e 40 51
e 40 52
e 40 53
e 40 56
e 40 58
e 40 59
e 40 60
e 40 62
e 40 63
e 40 64
e 40 67
e 40 68
e 40 70
e 40 71
e 40 73
e 40 76
e 40 77
e 40 78
e 40 79
e 40 83
e 40 84
e 40 86
e 40 87
e 40 88
e 40 89
e 40 90
e 40 91
e 40 92
e 40 93
e 40 94
e 40 95
e 40 96
e 40 100
e 40 101
e 40 106
e 40 110
e 40 111
e 40 115
e 40 116
e 40 117
e 40 118
e 40 121
e 40 123
e 40 124
e 41 44
e 41 45
e 41 50
e 41 53
e 41 57
e 41 58
e 41 59
e 41 61
e 41 63
e 41 74
e 41 75
e 41 76
e 41 82
e 41 86
e 41 87
e 41 90
e 41 93
e 41 95
e 41 98
e 41 100
e 41 105
e 41 107
e 41 109
e 41 111
e 41 112
e 41 113
e 41 115
e 41 116
e 41 118
e 41 119
e 41 120
e 41 121
e 41 122
e 41 123
e 41 125
e 42 44
e 42 47
e 42 49
e 42 50
e 42 51
e 42 52
e 42 53
e 42 55
e 42 56
e 42 57
e 42 60
e 42 62
e 42 63
e 42 64
e 42 66
e 42 67
e 42 70
e 42 72
e 42 75
e 42 76
e 42 77
e 42 79
e 42 81
e 42 82
e 42 83
e 42 84
e 42 86
e 42 87
e 42 91
e 42 95
e 42 97
e 42 98
e 42 99
e 42 102
e 42 106
e 42 110
e 42 115
e 42 117
e 42 122
e 42 123
e 42 125
e 43 44
e 43 45
e 43 50
e 43 53
e 43 56
e 43 57
e 43 58
e 43 60
e 43 65
e 43 66
e 43 68
e 43 75
e 43 76
e 43 78
e 43 79
e 43 83
e 43 84
e 43 88
e 43 91
e 43 97
e 43 99
e 43 102
e 43 104
e 43 106
e 43 107
e 43 108
e 43 109
e 43 110
e 43 112
e 43 114
e 43 116
e 43 119
e 43 121
e 43 124
e 43 125
e 44 45
e 44 50
e 44 51
e 44 52
e 44 53
e 44 56
e 44 57
e 44 58
e 44 60
e 44 61
e 44 64
e 44 65
e 44 69
e 44 70
e 44 71
e 44 72
e 44 78
e 44 80
e 44 82
e 44 83
e 44 87
e 44 91
e 44 92
e 44 93
e 44 94
e 44 98
e 44 100
e 44 101
e 44 104
e 44 107
e 44 110
e 44 111
e 44 112
e 44 113
e 44 115
e 44 117
e 44 121
e 44 122
e 44 123
e 45 48
e 45 51
e 45 54
e 45 56
e 45 59
e 45 61
e 45 62
e 45 63
e 45 66
e 45 67
e 45 68
e 45 70
e 45 71
e 45 72
e 45 73
e 45 74
e 45 78
e 45 80
e 45 81
e 45 82
e 45 83
e 45 84
e 45 92
e 45 93
e 45 94
e 45 96
e 45 103
e 45 111
e 45 112
e 45 114
e 45 117
e 45 118
e 45 119
e 45 122
e 46 47
e 46 48
e 46 51
e 46 52
e 46 53
e 46 54
e 46 56
e 46 58
e 46 59
e 46 60
e 46 61
e 46 64
e 46 65
e 46 68
e 46 71
e 46 73
e 46 74
e 46 78
e 46 79
e 46 80
e 46 82
e 46 84
e 46 85
e 46 86
e 46 90
e 46 91
e 46 94
e 46 95
e 46 100
e 46 105
e 46 106
e 46 107
e 46 108
e 46 110
e 46 111
e 46 112
e 46 113
e 46 114
e 46 115
e 46 117
e 46 118
e 46 120
e 46 123
e 46 125
e 47 49
e 47 51
e 47 52
e 47 53
e 47 54
e 47 55
e 47 57
e 47 59
e 47 61
e 47 62
e 47 63
e 47 64
e 47 67
e 47 69
e 47 70
e 47 73
e 47 77
e 47 78
e 47 79
e 47 81
e 47 82
e 47 85
e 47 87
e 47 89
e 47 91
e 47 94
e 47 96
e 47 97
e 47 98
e 47 100
e 47 102
e 47 103
e 47 104
e 47 105
e 47 106
e 47 108
e 47 113
e 47 115
e 47 118
e 47 120
e 47 123
e 47 124
e 48 49
e 48 50
e 48 51
e 48 52
e 48 54
e 48 56
e 48 57
e 48 58
e 48 60
e 48 63
e 48 64
e 48 65
e 48 66
e 48 67
e 48 68
e 48 69
e 48 70
e 48 71
e 48 74
e 48 77
e 48 78
e 48 79
e 48 82
e 48 83
e 48 84
e 48 88
e 48 90
e 48 91
e 48 92
e 48 94
e 48 95
e 48 96
e 48 97
e 48 99
e 48 102
e 48 105
e 48 107
e 48 108
e 48 111
e 48 113
e 48 114
e 48 115
e 48 118
e 48 121
e 48 123
e 48 125
e 49 50
e 49 52
e 49 53
e 49 54
e 49 57
e 49 59
e 49 61
e 49 62
e 49 63
e 49 67
e 49 68
e 49 71
e 49 72
e 49 74
e 49 77
e 49 78
e 49 79
e 49 80
e 49 82
e 49 83
e 49 85
e 49 87
e 49 89
e 49 92
e 49 93
e 49 96
e 49 97
e 49 98
e 49 102
e 49 103
e 49 106
e 49 107
e 49 108
e 49 109
e 49 112
e 49 115
e 49 116
e 49 122
e 49 123
e 49 124
e 49 125
e 50 51
e 50 53
e 50 54
e 50 55
e 50 57
e 50 59
e 50 60
e 50 61
e 50 63
e 50 65
e 50 67
e 50 73
e 50 74
e 50 75
e 50 79
e 50 80
e 50 83
e 50 85
e 50 89
e 50 91
e 50 92
e 50 94
e 50 99
e 50 100
e 50 104
e 50 107
e 50 109
e 50 113
e 50 114
e 50 116
e 50 117
e 50 118
e 50 119
e 50 122
e 50 123
e 51 55
e 51 56
e 51 58
e 51 59
e 51 61
e 51 62
e 51 63
e 51 64
e 51 65
e 51 66
e 51 67
e 51 70
e 51 73
e 51 74
e 51 75
e 51 77
e 51 79
e 51 80
e 51 81
e 51 82
e 51 84
e 51 85
e 51 89
e 51 91
e 51 93
e 51 95
e 51 96
e 51 99
e 51 100
e 51 101
e 51 102
e 51 108
e 51 109
e 51 110
e 51 113
e 51 114
e 51 115
e 51 117
e 51 119
e 51 122
e 52 53
e 52 56
e 52 57
e 52 64
e 52 65
e 52 71
e 52 72
e 52 73
e 52 74
e 52 77
e 52 78
e 52 81
e 52 85
e 52 88
e 52 90
e 52 91
e 52 95
e 52 97
e 52 98
e 52 99
e 52 101
e 52 106
e 52 109
e 52 110
e 52 111
e 52 112
e 52 113
e 52 114
e 52 115
e 52 120
e 52 122
e 52 124
e 52 125
e 53 56
e 53 58
e 53 59
e 53 60
e 53 64
e 53 66
e 53 68
e 53 70
e 53 71
e 53 74
e 53 79
e 53 81
e 53 82
e 53 86
e 53 87
e 53 88
e 53 89
e 53 93
e 53 94
e 53 97
e 53 99
e 53 101
e 53 103
e 53 105
e 53 108
e 53 109
e 53 111
e 53 112
e 53 115
e 53 116
e 53 119
e 53 120
e 53 121
e 53 122
e 53 123
e 53 124
e 54 55
e 54 56
e 54 57
e 54 59
e 54 60
e 54 61
e 54 62
e 54 65
e 54 69
e 54 70
e 54 71
e 54 72
e 54 74
e 54 76
e 54 79
e 54 80
e 54 81
e 54 82
e 54 83
e 54 84
e 54 85
e 54 89
e 54 90
e 54 92
e 54 94
e 54 95
e 54 96
e 54 97
e 54 98
e 54 99
e 54 102
e 54 103
e 54 105
e 54 108
e 54 110
e 54 114
e 54 117
e 54 120
e 54 121
e 54 122
e 54 123
e 54 124
e 54 125
e 55 57
e 55 61
e 55 62
e 55 65
e 55 66
e 55 70
e 55 72
e 55 73
e 55 74
e 55 77
e 55 80
e 55 82
e 55 85
e 55 86
e 55 87
e 55 90
e 55 93
e 55 94
e 55 97
e 55 100
e 55 101
e 55 102
e 55 106
e 55 107
e 55 110
e 55 111
e 55 114
e 55 115
e 55 118
e 55 121
e 55 125
e 56 57
e 56 58
e 56 60
e 56 61
e 56 62
e 56 64
e 56 65
e 56 66
e 56 68
e 56 71
e 56 75
e 56 76
e 56 80
e 56 81
e 56 83
e 56 84
e 56 87
e 56 90
e 56 93
e 56 95
e 56 96
e 56 99
e 56 100
e 56 104
e 56 106
e 56 107
e 56 110
e 56 111
e 56 112
e 56 114
e 56 116
e 56 117
e 56 118
e 56 119
e 56 120
e 56 121
e 56 123
e 56 125
e 57 61
e 57 62
e 57 64
e 57 65
e 57 70
e 57 72
e 57 73
e 57 76
e 57 77
e 57 78
e 57 81
e 57 83
e 57 89
e 57 90
e 57 92
e 57 93
e 57 94
e 57 96
e 57 99
e 57 100
e 57 101
e 57 103
e 57 104
e 57 105
e 57 106
e 57 109
e 57 111
e 57 112
e 57 114
e 57 118
e 57 119
e 57 120
e 57 121
e 57 123
e 57 124
e 58 60
e 58 64
e 58 66
e 58 67
e 58 68
e 58 69
e 58 71
e 58 74
e 58 76
e 58 78
e 58 79
e 58 80
e 58 82
e 58 85
e 58 86
e 58 87
e 58 89
e 58 95
e 58 96
e 58 97
e 58 98
e 58 100
e 58 103
e 58 104
e 58 105
e 58 107
e 58 108
e 58 109
e 58 112
e 58 114
e 58 116
e 58 121
e 58 122
e 58 124
e 58 125
e 59 61
e 59 64
e 59 65
e 59 69
e 59 70
e 59 71
e 59 74
e 59 75
e 59 79
e 59 80
e 59 81
e 59 82
e 59 83
e 59 87
e 59 88
e 59 89
e 59 90
e 59 91
e 59 93
e 59 94
e 59 97
e 59 98
e 59 99
e 59 100
e 59 103
e 59 106
e 59 108
e 59 110
e 59 112
e 59 114
e 59 117
e 59 118
e 59 121
e 59 122
e 59 125
e 60 61
e 60 63
e 60 65
e 60 69
e 60 75
e 60 76
e 60 77
e 60 78
e 60 79
e 60 80
e 60 81
e 60 82
e 60 85
e 60 89
e 60 91
e 60 93
e 60 94
e 60 96
e 60 97
e 60 98
e 60 99
e 60 100
e 60 101
e 60 102
e 60 103
e 60 104
e 60 109
e 60 111
e 60 115
e 60 117
e 60 122
e 60 123
e 60 124
e 60 125
e 61 65
e 61 67
e 61 68
e 61 73
e 61 76
e 61 82
e 61 84
e 61 85
e 61 87
e 61 89
e 61 91
e 61 95
e 61 97
e 61 98
e 61 102
e 61 106
e 61 107
e 61 109
e 61 110
e 61 112
e 61 113
e 61 114
e 61 115
e 61 117
e 61 119
e 61 122
e 61 123
e 61 125
e 62 65
e 62 73
e 62 74
e 62 75
e 62 77
e 62 78
e 62 82
e 62 83
e 62 86
e 62 87
e 62 90
e 62 91
e 62 92
e 62 93
e 62 96
e 62 101
e 62 108
e 62 109
e 62 110
e 62 114
e 62 116
e 62 117
e 62 118
e 62 120
e 62 121
e 62 122
e 62 123
e 62 124
e 62 125
e 63 64
e 63 65
e 63 67
e 63 70
e 63 77
e 63 78
e 63 79
e 63 80
e 63 81
e 63 85
e 63 90
e 63 91
e 63 92
e 63 94
e 63 95
e 63 97
e 63 99
e 63 100
e 63 102
e 63 105
e 63 108
e 63 109
e 63 110
e 63 111
e 63 114
e 63 115
e 63 124
e 63 125
e 64 65
e 64 69
e 64 72
e 64 75
e 64 76
e 64 79
e 64 80
e 64 82
e 64 83
e 64 84
e 64 85
e 64 86
e 64 93
e 64 96
e 64 100
e 64 101
e 64 104
e 64 105
e 64 107
e 64 109
e 64 111
e 64 112
e 64 114
e 64 117
e 64 119
e 64 120
e 64 121
e 64 122
e 64 123
e 65 66
e 65 69
e 65 73
e 65 78
e 65 79
e 65 81
e 65 83
e 65 86
e 65 87
e 65 91
e 65 93
e 65 96
e 65 98
e 65 102
e 65 104
e 65 106
e 65 107
e 65 108
e 65 109
e 65 111
e 65 112
e 65 114
e 65 117
e 65 119
e 65 120
e 65 122
e 65 123
e 65 124
e 66 69
e 66 70
e 66 71
e 66 72
e 66 74
e 66 77
e 66 78
e 66 82
e 66 85
e 66 88
e 66 89
e 66 90
e 66 91
e 66 94
e 66 96
e 66 97
e 66 98
e 66 99
e 66 102
e 66 104
e 66 106
e 66 107
e 66 108
e 66 111
e 66 112
e 66 113
e 66 114
e 66 115
e 66 116
e 66 117
e 66 118
e 66 119
e 66 121
e 66 125
e 67 72
e 67 73
e 67 74
e 67 79
e 67 82
e 67 85
e 67 88
e 67 92
e 67 95
e 67 97
e 67 98
e 67 99
e 67 101
e 67 102
e 67 103
e 67 105
e 67 106
e 67 107
e 67 109
e 67 115
e 67 116
e 67 122
e 67 123
e 67 125
e 68 69
e 68 73
e 68 74
e 68 75
e 68 76
e 68 78
e 68 79
e 68 80
e 68 82
e 68 84
e 68 86
e 68 88
e 68 90
e 68 91
e 68 92
e 68 93
e 68 94
e 68 98
e 68 99
e 68 101
e 68 104
e 68 105
e 68 107
e 68 108
e 68 109
e 68 110
e 68 112
e 68 113
e 68 114
e 68 116
e 68 119
e 68 120
e 68 123
e 68 124
e 69 71
e 69 78
e 69 80
e 69 83
e 69 87
e 69 88
e 69 90
e 69 91
e 69 93
e 69 94
e 69 95
e 69 97
e 69 98
e 69 99
e 69 100
e 69 101
e 69 102
e 69 103
e 69 104
e 69 106
e 69 109
e 69 112
e 69 113
e 69 118
e 69 123
e 70 77
e 70 78
e 70 81
e 70 84
e 70 85
e 70 86
e 70 87
e 70 88
e 70 90
e 70 91
e 70 92
e 70 93
e 70 94
e 70 96
e 70 98
e 70 99
e 70 100
e 70 102
e 70 105
e 70 108
e 70 113
e 70 114
e 70 115
e 70 118
e 70 120
e 70 122
e 71 72
e 71 75
e 71 77
e 71 81
e 71 82
e 71 84
e 71 85
e 71 86
e 71 88
e 71 89
e 71 92
e 71 94
e 71 96
e 71 98
e 71 100
e 71 102
e 71 103
e 71 107
e 71 109
e 71 112
e 71 113
e 71 114
e 71 120
e 71 121
e 71 125
e 72 75
e 72 77
e 72 80
e 72 82
e 72 83
e 72 84
e 72 86
e 72 89
e 72 91
e 72 94
e 72 95
e 72 99
e 72 103
e 72 104
e 72 105
e 72 110
e 72 111
e 72 112
e 72 116
e 72 117
e 72 118
e 72 120
e 72 122
e 72 123
e 72 124
e 72 125
e 73 74
e 73 75
e 73 85
e 73 86
e 73 88
e 73 91
e 73 95
e 73 99
e 73 101
e 73 103
e 73 105
e 73 107
e 73 108
e 73 109
e 73 110
e 73 111
e 73 112
e 73 113
e 73 114
e 73 115
e 73 116
e 73 117
e 73 120
e 73 122
e 73 125
e 74 77
e 74 78
e 74 80
e 74 82
e 74 83
e 74 85
e 74 91
e 74 95
e 74 100
e 74 102
e 74 103
e 74 104
e 74 105
e 74 108
e 74 109
e 74 110
e 74 113
e 74 115
e 74 122
e 75 76
e 75 77
e 75 79
e 75 82
e 75 83
e 75 84
e 75 86
e 75 91
e 75 92
e 75 95
e 75 103
e 75 105
e 75 106
e 75 110
e 75 111
e 75 113
e 75 114
e 75 117
e 75 119
e 75 122
e 75 123
e 75 124
e 76 77
e 76 79
e 76 80
e 76 81
e 76 89
e 76 92
e 76 93
e 76 95
e 76 97
e 76 101
e 76 102
e 76 103
e 76 106
e 76 108
e 76 112
e 76 118
e 76 119
e 76 125
e 77 78
e 77 79
e 77 82
e 77 84
e 77 85
e 77 89
e 77 91
e 77 93
e 77 94
e 77 100
e 77 103
e 77 104
e 77 108
e 77 109
e 77 112
e 77 113
e 77 115
e 77 117
e 77 118
e 77 120
e 77 122
e 77 124
e 78 80
e 78 81
e 78 84
e 78 85
e 78 89
e 78 90
e 78 92
e 78 93
e 78 98
e 78 100
e 78 105
e 78 106
e 78 107
e 78 110
e 78 111
e 78 113
e 78 119
e 78 121
e 78 122
e 78 123
e 78 125
e 79 80
e 79 85
e 79 86
e 79 88
e 79 89
e 79 90
e 79 91
e 79 92
e 79 93
e 79 94
e 79 95
e 79 97
e 79 98
e 79 99
e 79 103
e 79 107
e 79 109
e 79 110
e 79 112
e 79 113
e 79 120
e 79 122
e 79 125
e 80 81
e 80 84
e 80 85
e 80 86
e 80 87
e 80 88
e 80 89
e 80 91
e 80 93
e 80 94
e 80 96
e 80 98
e 80 100
e 80 101
e 80 103
e 80 104
e 80 108
e 80 109
e 80 110
e 80 111
e 80 112
e 80 114
e 80 115
e 80 116
e 80 117
e 80 118
e 80 119
e 80 122
e 80 123
e 81 83
e 81 84
e 81 85
e 81 88
e 81 89
e 81 90
e 81 94
e 81 96
e 81 98
e 81 100
e 81 101
e 81 102
e 81 106
e 81 107
e 81 108
e 81 109
e 81 110
e 81 111
e 81 112
e 81 114
e 81 115
e 81 122
e 81 125
e 82 83
e 82 84
e 82 86
e 82 88
e 82 89
e 82 90
e 82 92
e 82 95
e 82 101
e 82 102
e 82 105
e 82 107
e 82 109
e 82 110
e 82 112
e 82 121
e 82 123
e 82 124
e 83 84
e 83 85
e 83 87
e 83 90
e 83 91
e 83 92
e 83 93
e 83 95
e 83 96
e 83 98
e 83 100
e 83 101
e 83 102
e 83 104
e 83 106
e 83 107
e 83 109
e 83 112
e 83 114
e 83 119
e 83 124
e 84 85
e 84 87
e 84 89
e 84 91
e 84 92
e 84 93
e 84 95
e 84 97
e 84 98
e 84 99
e 84 100
e 84 102
e 84 104
e 84 106
e 84 107
e 84 109
e 84 112
e 84 117
e 84 118
e 84 120
e 84 121
e 84 123
e 85 86
e 85 87
e 85 89
e 85 93
e 85 95
e 85 97
e 85 98
e 85 99
e 85 101
e 85 103
e 85 105
e 85 107
e 85 109
e 85 112
e 85 113
e 85 115
e 85 119
e 85 123
e 85 125
e 86 87
e 86 91
e 86 92
e 86 94
e 86 95
e 86 97
e 86 99
e 86 100
e 86 101
e 86 102
e 86 103
e 86 104
e 86 108
e 86 111
e 86 112
e 86 114
e 86 115
e 86 116
e 86 118
e 86 125
e 87 93
e 87 94
e 87 95
e 87 96
e 87 99
e 87 100
e 87 102
e 87 104
e 87 106
e 87 108
e 87 110
e 87 112
e 87 114
e 87 116
e 87 118
e 87 120
e 87 121
e 87 125
e 88 90
e 88 91
e 88 92
e 88 94
e 88 95
e 88 98
e 88 101
e 88 102
e 88 103
e 88 105
e 88 106
e 88 108
e 88 109
e 88 112
e 88 116
e 88 118
e 88 122
e 88 124
e 89 91
e 89 100
e 89 101
e 89 102
e 89 104
e 89 106
e 89 108
e 89 112
e 89 113
e 89 116
e 89 117
e 89 119
e 89 123
e 89 125
e 90 91
e 90 93
e 90 94
e 90 96
e 90 99
e 90 104
e 90 106
e 90 108
e 90 111
e 90 114
e 90 116
e 90 117
e 90 119
e 90 120
e 90 121
e 90 122
e 90 123
e 90 124
e 90 125
e 91 93
e 91 94
e 91 96
e 91 100
e 91 101
e 91 104
e 91 105
e 91 107
e 91 110
e 91 111
e 91 115
e 91 117
e 91 118
e 91 122
e 91 123
e 91 124
e 92 93
e 92 94
e 92 96
e 92 98
e 92 100
e 92 101
e 92 102
e 92 103
e 92 104
e 92 105
e 92 109
e 92 111
e 92 113
e 92 118
e 92 119
e 92 121
e 92 122
e 92 123
e 92 124
e 93 95
e 93 96
e 93 97
e 93 98
e 93 100
e 93 102
e 93 103
e 93 105
e 93 106
e 93 109
e 93 110
e 93 113
e 93 115
e 93 116
e 93 118
e 93 120
e 93 122
e 93 123
e 93 125
e 94 95
e 94 97
e 94 101
e 94 102
e 94 103
e 94 104
e 94 106
e 94 107
e 94 108
e 94 111
e 94 113
e 94 116
e 94 117
e 94 121
e 94 123
e 94 124
e 95 102
e 95 107
e 95 109
e 95 114
e 95 115
e 95 116
e 95 118
e 95 120
e 95 121
e 95 122
e 95 124
e 95 125
e 96 98
e 96 100
e 96 102
e 96 103
e 96 106
e 96 107
e 96 108
e 96 110
e 96 111
e 96 113
e 96 119
e 96 120
e 96 121
e 96 124
e 97 99
e 97 101
e 97 102
e 97 103
e 97 106
e 97 110
e 97 112
e 97 113
e 97 115
e 97 117
e 97 121
e 97 123
e 98 100
e 98 103
e 98 104
e 98 106
e 98 108
e 98 109
e 98 110
e 98 111
e 98 115
e 98 116
e 98 118
e 98 121
e 98 122
e 98 123
e 98 124
e 99 103
e 99 105
e 99 107
e 99 109
e 99 117
e 99 118
e 99 121
e 99 122
e 99 124
e 99 125
e 100 101
e 100 102
e 100 103
e 100 106
e 100 108
e 100 110
e 100 111
e 100 113
e 100 115
e 100 118
e 100 119
e 100 120
e 100 123
e 101 103
e 101 105
e 101 106
e 101 108
e 101 110
e 101 111
e 101 112
e 101 113
e 101 114
e 101 117
e 101 119
e 101 121
e 101 125
e 102 103
e 102 104
e 102 106
e 102 109
e 102 110
e 102 113
e 102 114
e 102 119
e 102 120
e 102 122
e 102 123
e 103 104
e 103 106
e 103 107
e 103 108
e 103 109
e 103 110
e 103 112
e 103 114
e 103 115
e 103 118
e 103 119
e 103 120
e 103 122
e 103 123
e 104 105
e 104 106
e 104 107
e 104 111
e 104 112
e 104 113
e 104 116
e 104 118
e 104 119
e 104 121
e 104 123
e 104 124
e 105 106
e 105 107
e 105 109
e 105 110
e 105 113
e 105 120
e 105 124
e 106 108
e 106 111
e 106 112
e 106 114
e 106 115
e 106 116
e 106 119
e 106 121
e 106 122
e 106 123
e 106 124
e 106 125
e 107 108
e 107 109
e 107 110
e 107 115
e 107 118
e 107 124
e 107 125
e 108 110
e 108 111
e 108 112
e 108 116
e 108 118
e 108 119
e 108 121
e 108 123
e 108 124
e 108 125
e 109 111
e 109 114
e 109 115
e 109 116
e 109 121
e 109 122
e 109 123
e 109 124
e 110 111
e 110 113
e 110 114
e 110 115
e 110 120
e 110 123
e 111 114
e 111 115
e 111 116
e 111 120
e 111 124
e 111 125
e 112 116
e 112 117
e 112 120
e 112 122
e 113 115
e 113 116
e 113 118
e 113 119
e 113 120
e 113 122
e 113 124
e 113 125
e 114 118
e 114 120
e 114 121
e 114 122
e 114 123
e 114 124
e 114 125
e 115 116
e 115 117
e 115 120
e 115 122
e 115 123
e 115 124
e 116 119
e 116 121
e 116 123
e 116 124
e 117 119
e 117 121
e 117 122
e 117 123
e 117 125
e 118 120
e 118 122
e 118 123
e 118 124
e 118 125
e 119 124
e 119 125
e 120 121
e 120 123
e 120 124
e 121 122
e 121 123
e 122 124
e 122 125
e 123 124
