results/gccdcl_results/DSJC125.5.col.out
[options] GC configuration
[options] cmdline =  ./gc graphs/DSJC125.5.col
[options] Instance file = graphs/DSJC125.5.col
[options] Clause learning = 1
[options] Polarity policy = 0
[options] Clique ordering = 3
[options]  ... low degree = 0
[options] Color variables = absent
[options] Bound policy    = 2
[options] Adaptive bounds = 1
[options] Preprocessing   = dense
[options] IS constraints  = 0
[options] fillin          = no
[options] Triangle UP     = 0
[options] Branching strat = Brelaz
[options]  ... low degree = 0
[options]  ... brelaz fst = 0
[options]  ... phase save = 0
[options] Strategy        = branch and bound

[reading] #vertices = 125,  #edges = 3891,  density = 50.2065% at 0.001755
[statistics] lb ub clq iter core time conflicts moves memory

[data] lb = 0   | ub = 26  | clq = 0   | iter = 0   | core = 0   | time = 0.0002   | conflicts = 0       | moves = 0         | memory = 0       
[data] lb = 9   | ub = 26  | clq = 0   | iter = 0   | core = 0   | time = 0.0004   | conflicts = 0       | moves = 0         | memory = 0       
[data] lb = 10  | ub = 26  | clq = 0   | iter = 0   | core = 0   | time = 0.0023   | conflicts = 0       | moves = 0         | memory = 0       
[data] lb = 10  | ub = 21  | clq = 0   | iter = 0   | core = 0   | time = 0.0266   | conflicts = 0       | moves = 0         | memory = 0       
[preprocessing] finished at 0.0284
[modeling] preprocessed graph: #vertices = 125,  #edges = 3891,  density = 50.2065%
#vertices = 125,  #edges = 3891,  density = 50.2065%
[data] lb = 10  | ub = 20  | clq = 19  | iter = 0   | core = 0   | time = 0.0545   | conflicts = 482     | moves = 0         | memory = 0       
[data] lb = 10  | ub = 19  | clq = 20  | iter = 0   | core = 0   | time = 14.6240  | conflicts = 221999  | moves = 0         | memory = 0       
